346313.0
2655
1 2 5 8 9 10 12 13 14 15 17 18 19 20 21 24 25 27 28 29 30 31 32 33 35 38 39 40 41 45 48 50 51 52 53 54 56 57 58 59 66 67 68 72 73 74 75 76 77 80 81 82 83 85 89 91 92 93 94 95 96 98 101 102 103 108 109 110 116 118 120 122 123 124 126 127 128 129 130 131 133 137 138 140 145 146 147 153 156 157 158 159 161 162 164 165 168 170 172 174 175 176 177 178 179 180 181 182 185 186 190 191 192 193 194 195 196 198 199 